SCIP Status        : solving was interrupted [time limit reached]
Total Time         :    3600.01
  solving          :    3600.00
  presolving       :       0.44 (included in solving)
  reading          :       0.01
  copying          :       1.55 (38 #copies) (minimal 0.00, maximal 0.11, average 0.04)
Original Problem   :
  Problem name     : bbbenchmark/pw05_100.6.cut
  Variables        : 101 (100 binary, 0 integer, 0 implicit integer, 1 continuous)
  Constraints      : 1 initial, 1 maximal
  Objective        : minimize, 1 non-zeros (abs.min = 1, abs.max = 1)
Presolved Problem  :
  Problem name     : t_bbbenchmark/pw05_100.6.cut
  Variables        : 1956 (100 binary, 0 integer, 1843 implicit integer, 13 continuous)
  Constraints      : 1880 initial, 8156 maximal
  Objective        : minimize, 1 non-zeros (abs.min = 1, abs.max = 1)
  Nonzeros         : 8809 constraint, 202 clique table
Presolvers         :   ExecTime  SetupTime  Calls  FixedVars   AggrVars   ChgTypes  ChgBounds   AddHoles    DelCons    AddCons   ChgSides   ChgCoefs
  boundshift       :       0.00       0.00      0          0          0          0          0          0          0          0          0          0
  convertinttobin  :       0.00       0.00      0          0          0          0          0          0          0          0          0          0
  domcol           :       0.00       0.00      1          0          0          0          0          0          0          0          0          0
  dualagg          :       0.00       0.00      0          0          0          0          0          0          0          0          0          0
  dualcomp         :       0.00       0.00      1          0          0          0          0          0          0          0          0          0
  dualinfer        :       0.00       0.00      0          0          0          0          0          0          0          0          0          0
  dualsparsify     :       0.00       0.00      1          0          0          0          0          0          0          0          0          0
  gateextraction   :       0.00       0.00      0          0          0          0          0          0          0          0          0          0
  implics          :       0.00       0.00      2          0          0          0          0          0          0          0          0          0
  inttobinary      :       0.00       0.00      0          0          0          0          0          0          0          0          0          0
  qpkktref         :       0.00       0.00      0          0          0          0          0          0          0          0          0          0
  redvub           :       0.00       0.00      0          0          0          0          0          0          0          0          0          0
  sparsify         :       0.00       0.00      1          0          0          0          0          0          0          0          0          0
  stuffing         :       0.00       0.00      0          0          0          0          0          0          0          0          0          0
  trivial          :       0.00       0.00      4          0          0          0          0          0          0          0          0          0
  tworowbnd        :       0.00       0.00      0          0          0          0          0          0          0          0          0          0
  dualfix          :       0.00       0.00      4          0          0          0          0          0          0          0          0          0
  genvbounds       :       0.00       0.00      0          0          0          0          0          0          0          0          0          0
  probing          :       0.30       0.00      1          0          0          0          0          0          0          0          0          0
  pseudoobj        :       0.00       0.00      1          0          0          0          1          0          0          0          0          0
  symmetry         :       0.00       0.00      0          0          0          0          0          0          0          0          0          0
  vbounds          :       0.00       0.00      1          0          0          0          0          0          0          0          0          0
  varbound         :       0.00       0.00      2          0          0          0          0          0          0          0          0          0
  and              :       0.00       0.01      2          0          0          0          0          0          0          0          0          0
  linear           :       0.00       0.00      2          0          0          0          0          0          0          0          0          0
  logicor          :       0.00       0.00      0          0          0          0          0          0          0          0          0          0
  bounddisjunction :       0.00       0.00      0          0          0          0          0          0          0          0          0          0
  nonlinear        :       0.14       0.00      5          0          0          0          1          0          0       1879          0          0
  benders          :       0.00       0.00      0          0          0          0          0          0          0          0          0          0
  components       :       0.00       0.00      1          0          0          0          0          0          0          0          0          0
  root node        :          -          -      -          0          -          -         12          -          -          -          -          -
Constraints        :     Number  MaxNumber  #Separate #Propagate    #EnfoLP    #EnfoRelax  #EnfoPS    #Check   #ResProp    Cutoffs    DomReds       Cuts    Applied      Conss   Children
  benderslp        :          0          0          0          0      40123          0          0       6288          0          0          0          0          0          0          0
  integral         :          0          0          0          0      40123          0          0       6288          0          0       1971          0          0        576      79402
  varbound         :         12         12         69     291342          0          0          0         91          0          0      25422          0          0          0          0
  and              :       1843       1843      55694     341045          4          0          0         89     272890          2     444567      11549      10012          0          0
  linear           :         25+        29         69     341076          4          0          0         87        183          4     138383          0          0          0          0
  logicor          :          0+      6212          0      61121          0          0          0          0        167        136         40          0          0          0          0
  bounddisjunction :          0+       136          0      21085          0          0          0          0          2          7          2          0          0          0          0
  benders          :          0          0          0          0          4          0          0         41          0          0          0          0          0          0          0
  countsols        :          0          0          0          0          4          0          0         41          0          0          0          0          0          0          0
  components       :          0          0          0          0          0          0          0          0          0          0          0          0          0          0          0
Constraint Timings :  TotalTime  SetupTime   Separate  Propagate     EnfoLP     EnfoPS     EnfoRelax   Check    ResProp    SB-Prop
  benderslp        :       0.03       0.00       0.00       0.00       0.02       0.00       0.00       0.01       0.00       0.00
  integral         :      58.69       0.00       0.00       0.00      58.67       0.00       0.00       0.02       0.00       0.00
  varbound         :       0.42       0.00       0.00       0.42       0.00       0.00       0.00       0.00       0.00       0.00
  and              :      49.87       0.01      33.78      15.49       0.00       0.00       0.00       0.04       0.17       0.38
  linear           :       1.71       0.00       0.04       1.62       0.00       0.00       0.00       0.01       0.00       0.04
  logicor          :       4.96       0.00       0.00       4.94       0.00       0.00       0.00       0.00       0.00       0.02
  bounddisjunction :       0.26       0.00       0.00       0.26       0.00       0.00       0.00       0.00       0.00       0.00
  benders          :       0.00       0.00       0.00       0.00       0.00       0.00       0.00       0.00       0.00       0.00
  countsols        :       0.00       0.00       0.00       0.00       0.00       0.00       0.00       0.00       0.00       0.00
  components       :       0.09       0.00       0.00       0.09       0.00       0.00       0.00       0.00       0.00       0.00
Propagators        : #Propagate   #ResProp    Cutoffs    DomReds
  dualfix          :          4          0          0          0
  genvbounds       :          0          0          0          0
  nlobbt           :          0          0          0          0
  obbt             :          0          0          0          0
  probing          :          0          0          0          0
  pseudoobj        :     184448          0          0         15
  redcost          :     105550          0          0      48653
  rootredcost      :         17          0          0          0
  symmetry         :          0          0          0          0
  vbounds          :      46800          0          0          0
Propagator Timings :  TotalTime  SetupTime   Presolve  Propagate    ResProp    SB-Prop
  dualfix          :       0.00       0.00       0.00       0.00       0.00       0.00
  genvbounds       :       0.26       0.00       0.00       0.25       0.00       0.01
  nlobbt           :       0.00       0.00       0.00       0.00       0.00       0.00
  obbt             :       0.00       0.00       0.00       0.00       0.00       0.00
  probing          :       0.30       0.00       0.30       0.00       0.00       0.00
  pseudoobj        :       0.41       0.00       0.00       0.41       0.00       0.00
  redcost          :       8.30       0.00       0.00       8.30       0.00       0.00
  rootredcost      :       0.25       0.00       0.00       0.24       0.00       0.01
  symmetry         :       0.11       0.00       0.00       0.11       0.00       0.00
  vbounds          :       0.23       0.00       0.00       0.23       0.00       0.00
Conflict Analysis  :       Time      Calls    Success    DomReds  Conflicts   Literals    Reconvs ReconvLits   Dualrays   Nonzeros   LP Iters   (pool size: [10000,10000])
  propagation      :       0.00        145         98          -        107       60.8          0        0.0          -          -          -
  infeasible LP    :       0.02          6          6          -        274      144.0          0        0.0         11      164.7          0
  bound exceed. LP :      13.25       3244       2892          -      75762      111.0          1       43.0          0        0.0      31828
  strong branching :       0.00          0          0          -          0        0.0          0        0.0          -          -          0
  pseudo solution  :       0.00          0          0          -          0        0.0          0        0.0          -          -          -
  applied globally :       0.33          -          -          0      15342      124.9          -          -         11          -          -
  applied locally  :          -          -          -          0          0        0.0          -          -          0          -          -
Separators         :   ExecTime  SetupTime      Calls  RootCalls    Cutoffs    DomReds  FoundCuts ViaPoolAdd  DirectAdd    Applied ViaPoolApp  DirectApp      Conss
  cut pool         :       9.90          -      23974         91          -          -      43516    3009090          -          -          -          -          -    (maximal pool size:       4924)
  aggregation      :     590.73       0.00       9411         69          0          0        264        201          0         87         87          0          0
  > cmir           :          -          -          -          -          -          -          -        180          0         77         77          0          -
  > flowcover      :          -          -          -          -          -          -          -         21          0         10         10          0          -
  > knapsackcover  :          -          -          -          -          -          -          -          0          0          0          0          0          -
  cgmip            :       0.00       0.00          0          0          0          0          0          0          0          0          0          0          0
  clique           :       0.00       0.00         69         69          0          0          0          0          0          0          0          0          0
  closecuts        :       0.00       0.00          0          0          0          0          0          0          0          0          0          0          0
  convexproj       :       0.00       0.00          0          0          0          0          0          0          0          0          0          0          0
  disjunctive      :       0.00       0.00          0          0          0          0          0          0          0          0          0          0          0
  eccuts           :       0.00       0.00          0          0          0          0          0          0          0          0          0          0          0
  gauge            :       0.00       0.00          0          0          0          0          0          0          0          0          0          0          0
  gomory           :       0.00       0.00          0          0          0          0          0          0          0          0          0          0          0
  > gomorymi       :          -          -          -          -          -          -          -          0          0          0          0          0          -
  > strongcg       :          -          -          -          -          -          -          -          0          0          0          0          0          -
  impliedbounds    :       0.77       0.00       9411         69          0          0         71         23          0         17         17          0          0
  interlattice     :       0.00       0.00          0          0          0          0          0          0          0          0          0          0          0
  interminor       :       0.00       0.00          0          0          0          0          0          0          0          0          0          0          0
  intersub         :       0.82       0.00         40         40          0          0         40          0         40         40          0         40          0
  intobj           :       0.00       0.00          0          0          0          0          0          0          0          0          0          0          0
  mcf              :       0.00       0.00          1          1          0          0          0          0          0          0          0          0          0
  minor            :       0.00       0.00          0          0          0          0          0          0          0          0          0          0          0
  mixing           :       0.06       0.00       9411         69          0          0          0          0          0          0          0          0          0
  oddcycle         :       0.00       0.00          0          0          0          0          0          0          0          0          0          0          0
  rapidlearning    :       0.00       0.00          0          0          0          0          0          0          0          0          0          0          0
  rlt              :       0.00       0.00         10         10          0          0          0          0          0          0          0          0          0
  zerohalf         :      96.35       0.00       8497         20          0          0      43181    3008866          0     170208     170208          0          0
Cutselectors       :   ExecTime  SetupTime      Calls  RootCalls   Selected     Forced   Filtered  RootSelec   RootForc   RootFilt 
  hybrid           :       3.16       0.00      16993         67     180364          0    2840315        234          0         63
Pricers            :   ExecTime  SetupTime      Calls       Vars
  problem variables:       0.00          -          0          0
Branching Rules    :   ExecTime  SetupTime   BranchLP  BranchExt   BranchPS    Cutoffs    DomReds       Cuts      Conss   Children
  allfullstrong    :       0.00       0.00          0          0          0          0          0          0          0          0
  cloud            :       0.00       0.00          0          0          0          0          0          0          0          0
  distribution     :       0.00       0.00          0          0          0          0          0          0          0          0
  fullstrong       :       0.00       0.00          0          0          0          0          0          0          0          0
  inference        :       0.00       0.00          0          0          0          0          0          0          0          0
  leastinf         :       0.00       0.00          0          0          0          0          0          0          0          0
  lookahead        :       0.00       0.00          0          0          0          0          0          0          0          0
  mostinf          :       0.00       0.00          0          0          0          0          0          0          0          0
  multaggr         :       0.00       0.00          0          0          0          0          0          0          0          0
  nodereopt        :       0.00       0.00          0          0          0          0          0          0          0          0
  pscost           :       0.00       0.00          0          0          0          0          0          0          0          0
  random           :       0.00       0.00          0          0          0          0          0          0          0          0
  relpscost        :      58.51       0.00      40119          0          0          0       1971          0        577      79402
  vanillafullstrong:       0.00       0.00          0          0          0          0          0          0          0          0
Primal Heuristics  :   ExecTime  SetupTime      Calls      Found       Best
  LP solutions     :       0.00          -          -          4          4
  relax solutions  :       0.00          -          -          0          0
  pseudo solutions :       0.00          -          -          0          0
  strong branching :       0.02          -          -          0          0
  actconsdiving    :       0.00       0.00          0          0          0
  adaptivediving   :       4.72       0.00         26          0          0
  alns             :       4.08       0.00         20          9          9
  bound            :       0.00       0.00          0          0          0
  clique           :       0.01       0.00          1          0          0
  coefdiving       :       0.00       0.00          0          0          0
  completesol      :       0.00       0.00          0          0          0
  conflictdiving   :      40.11       0.00        276          0          0
  crossover        :       0.41       0.00          3          0          0
  dins             :       0.00       0.00          0          0          0
  distributiondivin:      54.11       0.00        216          0          0
  dps              :       0.00       0.00          0          0          0
  dualval          :       0.00       0.00          0          0          0
  farkasdiving     :       0.01       0.00          0          0          0
  feaspump         :       0.14       0.00          1          1          1
  fixandinfer      :       0.00       0.00          0          0          0
  fracdiving       :      36.90       0.00        216          0          0
  gins             :       0.11       0.00          0          0          0
  guideddiving     :      33.06       0.00        217          0          0
  indicator        :       0.05       0.00          0          0          0
  indicatordiving  :       0.00       0.00          0          0          0
  intdiving        :       0.00       0.00          0          0          0
  intshifting      :       0.49       0.00         32          0          0
  linesearchdiving :      32.31       0.00        216          0          0
  localbranching   :       0.00       0.00          0          0          0
  locks            :       0.01       0.00          1          0          0
  lpface           :       0.04       0.00          0          0          0
  mpec             :     133.97       0.00         11          4          4
  multistart       :       0.00       0.00          0          0          0
  mutation         :       0.00       0.00          0          0          0
  nlpdiving        :      13.50       0.00          8          0          0
  objpscostdiving  :     103.05       0.00         73         13          3
  octane           :       0.00       0.00          0          0          0
  ofins            :       0.04       0.00          0          0          0
  oneopt           :       0.07       0.00         24          0          0
  padm             :       0.00       0.00          0          0          0
  proximity        :       0.00       0.00          0          0          0
  pscostdiving     :      40.69       0.00        217          1          1
  randrounding     :       0.65       0.00       6243          0          0
  rens             :       0.00       0.00          0          0          0
  reoptsols        :       0.00       0.00          0          0          0
  repair           :       0.00       0.00          0          0          0
  rins             :       2.62       0.00         14          0          0
  rootsoldiving    :      36.15       0.00         23          1          0
  rounding         :       1.01       0.00       3196          0          0
  shiftandpropagate:       0.00       0.00          0          0          0
  shifting         :      54.42       0.00       9628          6          5
  simplerounding   :       0.05       0.00          0          0          0
  subnlp           :      88.73       0.00          0          0          0
  trivial          :       0.01       0.00          2          2          2
  trivialnegation  :       0.00       0.00          0          0          0
  trustregion      :       0.00       0.00          0          0          0
  trysol           :       0.09       0.00          0          0          0
  twoopt           :       0.00       0.00          0          0          0
  undercover       :       0.46       0.00          1          1          1
  vbounds          :       0.00       0.00          0          0          0
  veclendiving     :      30.06       0.00        216          0          0
  zeroobj          :       0.00       0.00          0          0          0
  zirounding       :       0.46       0.00       1000          0          0
  other solutions  :          -          -          -          0          -
Diving (single)    :      Calls      Nodes   LP Iters Backtracks  Conflicts   MinDepth   MaxDepth   AvgDepth  RoundSols  NLeafSols  MinSolDpt  MaxSolDpt  AvgSolDpt
  actconsdiving    :          0          -          -          -          -          -          -          -          -          -          -          -          -
  coefdiving       :          0          -          -          -          -          -          -          -          -          -          -          -          -
  conflictdiving   :        276      12068     339575        281      21125         55         85       61.2          0          -          -          -          -
  distributiondivin:        216       7812     328506        236       6704         46         69       54.4          0          -          -          -          -
  farkasdiving     :          0          -          -          -          -          -          -          -          -          -          -          -          -
  fracdiving       :        216      34117     271308         57       1026         56        670      177.3          0          -          -          -          -
  guideddiving     :        217      28007     253557         50       1509         56        529      149.0          0          -          -          -          -
  indicatordiving  :          0          -          -          -          -          -          -          -          -          -          -          -          -
  linesearchdiving :        216       9511     261298        228      13875         49         95       62.2          0          -          -          -          -
  pscostdiving     :        217       9844     325806        223       8386         53         81       63.3          0          1         81         81       81.0
  veclendiving     :        216       9291     235082        214      16563         54         92       61.4          0          -          -          -          -
Diving (adaptive)  :      Calls      Nodes   LP Iters Backtracks  Conflicts   MinDepth   MaxDepth   AvgDepth  RoundSols  NLeafSols  MinSolDpt  MaxSolDpt  AvgSolDpt
  actconsdiving    :          5        209       7794          5        110         56         58       57.0          0          -          -          -          -
  coefdiving       :          5        215       5502          5        336         58         62       60.4          0          -          -          -          -
  conflictdiving   :          0          -          -          -          -          -          -          -          -          -          -          -          -
  distributiondivin:          0          -          -          -          -          -          -          -          -          -          -          -          -
  farkasdiving     :          0          -          -          -          -          -          -          -          -          -          -          -          -
  fracdiving       :          2        434       3206          0          0        173        289      231.0          0          -          -          -          -
  guideddiving     :          1        122       1059          0          0        139        139      139.0          0          -          -          -          -
  indicatordiving  :          0          -          -          -          -          -          -          -          -          -          -          -          -
  linesearchdiving :          4        195       4628          4        247         56         74       67.0          0          -          -          -          -
  pscostdiving     :          3        143       5263          3         71         61         72       65.0          0          -          -          -          -
  veclendiving     :          6        254       4764          5        383         56         82       67.3          0          -          -          -          -
Neighborhoods      :      Calls  SetupTime  SolveTime SolveNodes       Sols       Best       Exp3  EpsGreedy        UCB TgtFixRate  Opt  Inf Node Stal  Sol  Usr Othr Actv
  rens             :          2       0.19       0.03          2          0          0    0.00000   -1.00000    0.54778      0.550    0    2    0    0    0    0    0    1
  rins             :          1       0.05       0.02          5          0          0    0.00000   -1.00000    0.56479      0.700    0    1    0    0    0    0    0    1
  mutation         :          5       0.22       1.52       1035          6          6    0.00000   -1.00000    0.54146      0.585    2    0    0    2    1    0    0    1
  localbranching   :          2       0.19       0.09         71          0          0    0.00000   -1.00000    0.47385      0.850    0    1    0    1    0    0    0    1
  crossover        :          4       0.31       0.22        138          1          1    0.00000   -1.00000    0.51640      0.747    1    1    0    2    0    0    0    1
  proximity        :          1       0.05       0.01          1          0          0    0.00000   -1.00000    0.56879      0.700    0    1    0    0    0    0    0    1
  zeroobjective    :          2       0.19       0.08         75          0          0    0.00000   -1.00000    0.46476      0.850    0    1    0    1    0    0    0    1
  dins             :          3       0.37       0.32        362          2          2    0.00000   -1.00000    0.48144      0.812    0    1    0    2    0    0    0    1
  trustregion      :          0       0.00       0.00          0          0          0    0.00000   -1.00000    1.00000      0.900    0    0    0    0    0    0    0    0
Expressions        :   #IntEval  IntEvalTi   #RevProp  RevPropTi    DomReds    Cutoffs  #Estimate  EstimTime  Branching  #Simplify SimplifyTi Simplified
  pow              :          0       0.00          0       0.00          0          0          0       0.00          0          0       0.00          0
  prod             :       9900       0.01          0       0.00          0          0          0       0.00          0       6793       0.00          0
  sum              :          8       0.01          2       0.00          0          0          0       0.00          0          3       0.01          2
  var              :       6677       0.00          0       0.00          0          0          0       0.00          0      15744       0.01          0
  varidx           :          0       0.00          0       0.00          0          0          0       0.00          0          0       0.00          0
LP                 :       Time      Calls Iterations  Iter/call   Iter/sec  Time-0-It Calls-0-It    ItLimit
  primal LP        :     117.80       7160          0       0.00       0.00     117.75       7160
  dual LP          :    1848.77      91435    7805970      93.87    4222.25       4.07       8281
  lex dual LP      :       0.00          0          0       0.00          -
  barrier LP       :       0.00          0          0       0.00          -       0.00          0
  resolve instable :       0.00          0          0       0.00          -
  diving/probing LP:     358.28      11512    2745275     238.47    7662.37
  strong branching :      39.83       1783     254689     142.84    6394.40          -          -        458
    (at root node) :          -         19       5499     289.42          -
  conflict analysis:       6.06       3218      31828       9.89    5252.15
NLP relaxation     :
  solve time       :      12.88 (11 calls)
  convexity        :  nonconvex (37 linear rows, 0 convex ineq., 0 nonconvex ineq., 1843 nonlinear eq. or two-sided ineq.)
NLP Solvers        :  #Problems  ProblemTi    #Solves  SolveTime      #Iter  Time/Iter      #Okay #TimeLimit #IterLimit #LObjLimit #Interrupt  #NumError #EvalError  #OutOfMem #LicenseEr #OtherTerm   #GlobOpt    #LocOpt  #Feasible #LocInfeas #GlobInfea #Unbounded   #Unknown
  ipopt            :         12       3.40         43     151.30       1729       0.09         41          0          2          0          0          0          0          0          0          0          0         24          0         10          0          0          9
B&B Tree           :
  number of runs   :          1
  nodes            :      65779 (39701 internal, 26078 leaves)
  feasible leaves  :          4
  infeas. leaves   :          9
  objective leaves :      26064
  nodes (total)    :      65779 (39701 internal, 26078 leaves)
  nodes left       :      13201
  max depth        :         61
  max depth (total):         61
  backtracks       :      15023 (22.8%)
  early backtracks :          0 (0.0%)
  nodes exc. ref.  :          0 (0.0%)
  delayed cutoffs  :          1
  repropagations   :         47 (138 domain reductions, 0 cutoffs)
  avg switch length:       5.82
  switching time   :     133.64
Estim. Tree Size   :     132404
Estimation Tree    : 79403 nodes (66202 visited, 39701 internal, 26501 leaves, 13201 open), weight: 0.0000 completed 0.1391
Estimations        :      estim      value      trend resolution     smooth
  wbe              : 20364304460689          -          -          -          -
  tree-profile     :         -1          -          -          -          -
  gap              :    1044080    0.67711    0.00002         32     996326
  tree-weight      :     132404    0.00000    0.00000         32     132344
  leaf-frequency   :     571535    0.40030    0.00001         32     773153
  ssg              :    2902594    0.78035   -0.00002         32    2759408
  open-nodes       :     132404 13201.00000   15.76162         32     132344
Root Node          :
  First LP value   : -5.58505050505052e+00
  First LP Iters   :       1626 (9564.71 Iter/sec)
  First LP Time    :       0.17
  Final Dual Bound : -5.33841040612584e+00
  Final Root Iters :       3862
  Root LP Estimate : -1.87899011293113e+00
Solution           :
  Solutions found  :         42 (30 improvements)
  First Solution   : +1.00000000000000e+05   (in run 1, after 0 nodes, 0.05 seconds, depth 0, found by <trivial>)
  Gap First Sol.   :   infinite
  Gap Last Sol.    :      50.02 %
  Primal Bound     : -3.20121212121211e+00   (in run 1, after 44922 nodes, 1551.32 seconds, depth 40, found by <alns>)
  Dual Bound       : -4.72773108029035e+00
  Gap              :      47.69 %
Integrals          :      Total       Avg%
  primal-dual      :  125270.82      34.80
  primal-ref       :          -          - (not evaluated)
  dual-ref         :          -          - (not evaluated)
